(declare-fun args_1_8 () (_ BitVec 8))
(declare-fun args_0_8 () (_ BitVec 8))
(assert (let ((a!1 (bvadd #b111 (concat #b01 (ite (= #x00 args_0_8) #b1 #b0))))
      (a!3 (concat (concat #b1111111111111111111111111111111111111111111111111111111111111
                           (ite (= #x2f args_1_8) #b0 #b1))
                   #b1))
      (a!4 (bvadd #xffffffffffffffff
                  (concat #b000000000000000011111111111111111111111100000000000000001010101
                          (ite (= #x00 args_0_8) #b1 #b0))))
      (a!6 (bvadd #b1111111 (concat #b010101 (ite (= #x00 args_0_8) #b1 #b0))))
      (a!7 (bvadd #b111111 (concat #b10101 (ite (= #x00 args_0_8) #b1 #b0))))
      (a!9 (bvadd #b11111 (concat #x5 (ite (= #x00 args_0_8) #b1 #b0))))
      (a!10 (bvadd #xf (concat #b101 (ite (= #x00 args_0_8) #b1 #b0))))
      (a!12 (bvadd #b11 (concat #b1 (ite (= #x00 args_0_8) #b1 #b0))))
      (a!14 (bvxor (bvadd #b1 (ite (= #x00 args_0_8) #b1 #b0))
                   (ite (= #x00 args_0_8) #b1 #b0)))
      (a!16 (or (= #b0 ((_ extract 7 7) args_1_8))
                (= ((_ extract 7 7) args_1_8)
                   ((_ extract 7 7) (bvadd #xc1 args_1_8)))))
      (a!18 (or (= #b0 ((_ extract 7 7) args_1_8))
                (= ((_ extract 7 7) args_1_8)
                   ((_ extract 7 7) (bvadd #x86 args_1_8)))))
      (a!20 (bvshl #x0000000000000001
                   (concat #b0000000000000000000000000000000000000000000000000000000000
                           (bvadd #b111111 ((_ extract 5 0) args_1_8))))))
(let ((a!2 (ite (or (not (= #x2f args_1_8)) (= #b0 ((_ extract 2 2) a!1)))
                (ite (= #x2f args_0_8) #x000000000000003f #x0000000000000040)
                #x000000000000003d))
      (a!5 (concat (concat (bvnot ((_ extract 63 48) a!4))
                           ((_ extract 47 24) a!4))
                   (bvnot ((_ extract 23 8) a!4))))
      (a!17 (not (= ((_ extract 7 7) (bvadd #xc1 args_1_8)) (ite a!16 #b1 #b0))))
      (a!19 (or (= #x7a args_1_8)
                (= ((_ extract 7 7) (bvadd #x86 args_1_8)) (ite a!18 #b1 #b0))))
      (a!21 (or (not (= #b00000000000000000000000000 ((_ extract 57 32) a!20)))
                (not (= #b0 ((_ extract 30 30) a!20)))
                (not (= #b00000000000000000000000000 ((_ extract 25 0) a!20)))
                (not (= #b0 ((_ extract 28 28) a!20))))))
(let ((a!8 (concat (concat (concat a!5 ((_ extract 7 7) a!4))
                           (bvnot ((_ extract 6 6) a!6)))
                   ((_ extract 5 5) a!7))))
(let ((a!11 (concat (concat a!8 (bvnot ((_ extract 4 4) a!9)))
                    ((_ extract 3 3) a!10))))
(let ((a!13 (concat (concat a!11 (bvnot ((_ extract 2 2) a!1)))
                    ((_ extract 1 1) a!12))))
(let ((a!15 (bvor (concat a!3 (ite (= #x2f args_0_8) #b0 #b1))
                  (concat a!13 (bvnot a!14)))))
  (and (bvsge #x0000000000000006
              (bvadd #x0000000000000040 (bvmul #xffffffffffffffff a!2)))
       (not (= #x0000000000000000 (bvnot a!15)))
       (not (= #x3f args_1_8))
       (not (= #x40 args_1_8))
       a!17
       a!19
       a!21))))))))
(define-fun goal () (_ BitVec 64) (let ((a!1 ((_ zero_extend 24)
             ((_ extract 7 0)
               (bvlshr ((_ zero_extend 56) args_1_8) #x0000000000000005)))))
  (bvadd #x00000000c0000f88 (bvshl ((_ zero_extend 32) a!1) #x0000000000000002)))) 
(minimize goal)
(check-sat)